50
    21    61    84    72    97     9    27    31    61    38     6    97    43    18    34    86    66    34    66    78    43    88    98    20    76    94    66    23    59    87    47    65    77    13    57    89     5    35    55     3     9    33    40    83    45     2    49    67    59    52
     9     3     7     8     2     7     1     6     8     8     4     3     5    10    10     7     8     1     1     4     8     5     6     2     6    10     3     7     6     9     3     5     2     9     9     4     6     2     8     8     4     5     6     3     2    10     3     3     3     2
  1098   871  1082  1002  1233  1005   807   929   794  1124   961   843  1110  1016   828  1214   933   982   933  1167   801  1125   875  1220  1013   884  1012  1149   867   870   808  1199  1248   873  1032   970   795  1181  1081  1134  1041  1102  1170   794  1050   795  1203  1246  1024   813
